\ENCODING=ISO-8859-1
\Problem name: IloCplex

Maximize
 obj1: 383 x1 + 886 x2 + 777 x3 + 915 x4 + 793 x5 + 335 x6 + 386 x7 + 492 x8
       + 649 x9 + 421 x10
Subject To
 c1: 362 x1 + 27 x2 + 690 x3 + 59 x4 + 763 x5 + 926 x6 + 540 x7 + 426 x8
     + 172 x9 + 736 x10 - Rgc1  = 0
Bounds
 0 <= x1 <= 1
 0 <= x2 <= 1
 0 <= x3 <= 1
 0 <= x4 <= 1
 0 <= x5 <= 1
 0 <= x6 <= 1
 0 <= x7 <= 1
 0 <= x8 <= 1
 0 <= x9 <= 1
 0 <= x10 <= 1
 0 <= Rgc1 <= 1000
Binaries
 x1  x2  x3  x4  x5  x6  x7  x8  x9  x10 
End
